solution status: optimal solution found
objective value:                     231548.215989796
d11(0,0)                                            1 	(obj:0)
d11(1,1)                                            1 	(obj:0)
d11(2,3)                                            1 	(obj:0)
d11(2,5)                                            1 	(obj:0)
d11(3,7)                                            1 	(obj:0)
d11(3,9)                                            1 	(obj:0)
d11(3,11)                                           1 	(obj:0)
d11(3,12)                                           1 	(obj:0)
d11(3,13)                                           1 	(obj:0)
d11(3,14)                                           1 	(obj:0)
d11(4,15)                                           1 	(obj:0)
d11(4,17)                                           1 	(obj:0)
d11(4,19)                                           1 	(obj:0)
d11(4,21)                                           1 	(obj:0)
d11(4,23)                                           1 	(obj:0)
d11(4,24)                                           1 	(obj:0)
d11(4,25)                                           1 	(obj:0)
d11(4,26)                                           1 	(obj:0)
d11(4,27)                                           1 	(obj:0)
d11(4,29)                                           1 	(obj:0)
d11(5,31)                                           1 	(obj:0)
d11(5,32)                                           1 	(obj:0)
d11(5,33)                                           1 	(obj:0)
d11(5,34)                                           1 	(obj:0)
d11(5,35)                                           1 	(obj:0)
d11(5,36)                                           1 	(obj:0)
d11(5,37)                                           1 	(obj:0)
d11(5,38)                                           1 	(obj:0)
d11(5,39)                                           1 	(obj:0)
d11(5,40)                                           1 	(obj:0)
d11(5,41)                                           1 	(obj:0)
d11(5,42)                                           1 	(obj:0)
d11(5,43)                                           1 	(obj:0)
d11(5,44)                                           1 	(obj:0)
d11(5,45)                                           1 	(obj:0)
d11(5,46)                                           1 	(obj:0)
d11(5,47)                                           1 	(obj:0)
d11(5,48)                                           1 	(obj:0)
d11(5,49)                                           1 	(obj:0)
d11(5,50)                                           1 	(obj:0)
d11(5,51)                                           1 	(obj:0)
d11(5,52)                                           1 	(obj:0)
d11(5,53)                                           1 	(obj:0)
d11(5,54)                                           1 	(obj:0)
d11(5,55)                                           1 	(obj:0)
d11(5,56)                                           1 	(obj:0)
d11(5,57)                                           1 	(obj:0)
d11(5,59)                                           1 	(obj:0)
d11(5,60)                                           1 	(obj:0)
d11(5,61)                                           1 	(obj:0)
d11(6,67)                            1.00000000000001 	(obj:0)
d11(6,71)                            1.00000000000001 	(obj:0)
d11(6,73)                            1.00000000000001 	(obj:0)
d11(6,77)                                           1 	(obj:0)
d11(6,79)                            1.00000000000001 	(obj:0)
d11(6,81)                            1.00000000000001 	(obj:0)
d11(6,83)                            1.00000000000001 	(obj:0)
d11(6,85)                                           1 	(obj:0)
d11(6,95)                            1.00000000000001 	(obj:0)
d11(6,97)                            1.00000000000001 	(obj:0)
d11(6,99)                            1.00000000000001 	(obj:0)
d11(6,103)                           1.00000000000001 	(obj:0)
d11(6,111)                           1.00000000000001 	(obj:0)
d11(6,113)                                          1 	(obj:0)
d11(6,115)                                          1 	(obj:0)
d11(6,119)                                          1 	(obj:0)
d12(2,4)                                            1 	(obj:0)
d12(2,6)                                            1 	(obj:0)
d12(6,64)                                           1 	(obj:0)
d12(6,66)                                           1 	(obj:0)
d12(6,68)                                           1 	(obj:0)
d12(6,70)                                           1 	(obj:0)
d12(6,72)                                           1 	(obj:0)
d12(6,74)                                           1 	(obj:0)
d12(6,76)                                           1 	(obj:0)
d12(6,78)                                           1 	(obj:0)
d12(6,80)                                           1 	(obj:0)
d12(6,82)                                           1 	(obj:0)
d12(6,84)                                           1 	(obj:0)
d12(6,86)                                           1 	(obj:0)
d12(6,88)                                           1 	(obj:0)
d12(6,90)                                           1 	(obj:0)
d12(6,92)                                           1 	(obj:0)
d12(6,94)                                           1 	(obj:0)
d12(6,96)                                           1 	(obj:0)
d12(6,98)                                           1 	(obj:0)
d12(6,100)                                          1 	(obj:0)
d12(6,102)                                          1 	(obj:0)
d12(6,104)                                          1 	(obj:0)
d12(6,106)                                          1 	(obj:0)
d12(6,108)                                          1 	(obj:0)
d12(6,110)                                          1 	(obj:0)
d12(6,112)                                          1 	(obj:0)
d12(6,114)                                          1 	(obj:0)
d12(6,116)                                          1 	(obj:0)
d12(6,118)                                          1 	(obj:0)
d12(6,120)                                          1 	(obj:0)
d12(6,122)                                          1 	(obj:0)
d12(6,124)                                          1 	(obj:0)
d12(6,126)                                          1 	(obj:0)
d21(4,15)                                           1 	(obj:0)
d21(5,31)                                           1 	(obj:0)
d21(5,32)                                           1 	(obj:0)
d21(5,33)                                           1 	(obj:0)
d21(5,34)                                           1 	(obj:0)
d21(5,35)                                           1 	(obj:0)
d21(5,36)                                           1 	(obj:0)
d21(5,37)                                           1 	(obj:0)
d21(5,39)                                           1 	(obj:0)
d21(5,40)                                           1 	(obj:0)
d21(5,41)                                           1 	(obj:0)
d21(5,43)                                           1 	(obj:0)
d21(5,47)                                           1 	(obj:0)
d21(5,48)                                           1 	(obj:0)
d21(5,49)                                           1 	(obj:0)
d21(5,51)                                           1 	(obj:0)
d21(5,55)                                           1 	(obj:0)
d21(6,63)                                           1 	(obj:0)
d21(6,64)                                           1 	(obj:0)
d21(6,65)                                           1 	(obj:0)
d21(6,66)                                           1 	(obj:0)
d21(6,67)                                           1 	(obj:0)
d21(6,68)                                           1 	(obj:0)
d21(6,69)                                           1 	(obj:0)
d21(6,70)                                           1 	(obj:0)
d21(6,71)                                           1 	(obj:0)
d21(6,72)                                           1 	(obj:0)
d21(6,73)                                           1 	(obj:0)
d21(6,74)                                           1 	(obj:0)
d21(6,75)                                           1 	(obj:0)
d21(6,76)                                           1 	(obj:0)
d21(6,79)                                           1 	(obj:0)
d21(6,80)                                           1 	(obj:0)
d21(6,81)                                           1 	(obj:0)
d21(6,82)                                           1 	(obj:0)
d21(6,83)                                           1 	(obj:0)
d21(6,84)                                           1 	(obj:0)
d21(6,85)                                           1 	(obj:0)
d21(6,87)                                           1 	(obj:0)
d21(6,88)                                           1 	(obj:0)
d21(6,89)                                           1 	(obj:0)
d21(6,91)                                           1 	(obj:0)
d21(6,95)                                           1 	(obj:0)
d21(6,96)                                           1 	(obj:0)
d21(6,97)                                           1 	(obj:0)
d21(6,98)                                           1 	(obj:0)
d21(6,99)                                           1 	(obj:0)
d21(6,100)                                          1 	(obj:0)
d21(6,103)                                          1 	(obj:0)
d21(6,104)                                          1 	(obj:0)
d21(6,105)                                          1 	(obj:0)
d21(6,111)                                          1 	(obj:0)
d21(6,112)                                          1 	(obj:0)
d21(6,113)                                          1 	(obj:0)
d21(6,115)                                          1 	(obj:0)
d21(6,119)                                          1 	(obj:0)
y2(6,100)                            1385.48851144895 	(obj:0)
y2(6,102)                            1385.48851144895 	(obj:0)
y2(6,104)                            1385.48851144895 	(obj:0)
y2(6,106)                            1385.48851144895 	(obj:0)
y2(6,108)                            1385.48851144895 	(obj:0)
y2(6,110)                            1385.48851144895 	(obj:0)
y2(6,112)                            1385.48851144895 	(obj:0)
y2(6,114)                            1385.48851144895 	(obj:0)
y2(6,116)                            1385.48851144895 	(obj:0)
y2(6,118)                            1385.48851144895 	(obj:0)
y2(6,120)                            1385.48851144895 	(obj:0)
y2(6,122)                            1385.48851144895 	(obj:0)
y2(6,124)                            1385.48851144895 	(obj:0)
y2(6,126)                            1385.48851144895 	(obj:0)
STE(1,1)                             9933.75010111115 	(obj:0)
STE(0,0)                                        12600 	(obj:0)
STE(1,2)                                        11592 	(obj:0)
STE(2,3)                             7812.00000000003 	(obj:0)
STE(2,4)                             9250.84024496822 	(obj:0)
STE(2,5)                             9470.24989888887 	(obj:0)
STE(2,6)                             10909.0901438571 	(obj:0)
STE(3,7)                             5145.75010111118 	(obj:0)
STE(3,8)                             6804.00000000003 	(obj:0)
STE(3,9)                             6584.59034607937 	(obj:0)
STE(3,10)                            8242.84024496822 	(obj:0)
STE(3,11)                            6804.00000000003 	(obj:0)
STE(3,12)                            8462.24989888887 	(obj:0)
STE(3,13)                            8242.84024496822 	(obj:0)
STE(3,14)                            9901.09014385706 	(obj:0)
STE(4,15)                            2479.50020222234 	(obj:0)
STE(4,16)                            4137.75010111118 	(obj:0)
STE(4,17)                            4137.75010111118 	(obj:0)
STE(4,18)                            5796.00000000003 	(obj:0)
STE(4,19)                            3918.34044719053 	(obj:0)
STE(4,20)                            5576.59034607937 	(obj:0)
STE(4,21)                            5576.59034607937 	(obj:0)
STE(4,22)                            7234.84024496822 	(obj:0)
STE(4,23)                            4137.75010111118 	(obj:0)
STE(4,24)                            5796.00000000003 	(obj:0)
STE(4,25)                            5796.00000000003 	(obj:0)
STE(4,26)                            7454.24989888887 	(obj:0)
STE(4,27)                            5576.59034607937 	(obj:0)
STE(4,28)                            7234.84024496822 	(obj:0)
STE(4,29)                            7234.84024496822 	(obj:0)
STE(4,30)                            8893.09014385706 	(obj:0)
STE(5,31)                           -186.749696666509 	(obj:0)
STE(5,32)                            1471.50020222231 	(obj:0)
STE(5,33)                            1471.50020222234 	(obj:0)
STE(5,34)                            3129.75010111115 	(obj:0)
STE(5,35)                            1471.50020222234 	(obj:0)
STE(5,36)                            3129.75010111115 	(obj:0)
STE(5,37)                            3129.75010111118 	(obj:0)
STE(5,38)                            4787.99999999996 	(obj:0)
STE(5,39)                            1252.09054830168 	(obj:0)
STE(5,40)                             2910.3404471905 	(obj:0)
STE(5,41)                            2910.34044719053 	(obj:0)
STE(5,42)                            4568.59034607935 	(obj:0)
STE(5,43)                            2910.34044719053 	(obj:0)
STE(5,44)                            4568.59034607935 	(obj:0)
STE(5,45)                            4568.59034607937 	(obj:0)
STE(5,46)                            6226.84024496819 	(obj:0)
STE(5,47)                            1471.50020222234 	(obj:0)
STE(5,48)                            3129.75010111115 	(obj:0)
STE(5,49)                            3129.75010111118 	(obj:0)
STE(5,50)                                        4788 	(obj:0)
STE(5,51)                            3129.75010111118 	(obj:0)
STE(5,52)                                        4788 	(obj:0)
STE(5,53)                            4788.00000000003 	(obj:0)
STE(5,54)                            6446.24989888884 	(obj:0)
STE(5,55)                            2910.34044719053 	(obj:0)
STE(5,56)                            4568.59034607934 	(obj:0)
STE(5,57)                            4568.59034607937 	(obj:0)
STE(5,58)                            6226.84024496822 	(obj:0)
STE(5,59)                            4568.59034607937 	(obj:0)
STE(5,60)                            6226.84024496819 	(obj:0)
STE(5,61)                            6226.84024496822 	(obj:0)
STE(5,62)                            7885.09014385706 	(obj:0)
STE(6,63)                           -1194.74969666651 	(obj:0)
STE(6,64)                            121.464389209997 	(obj:0)
STE(6,65)                            463.500202222307 	(obj:0)
STE(6,66)                            1779.71428809881 	(obj:0)
STE(6,67)                            463.500202222336 	(obj:0)
STE(6,68)                            1779.71428809884 	(obj:0)
STE(6,69)                            2121.75010111115 	(obj:0)
STE(6,70)                            3437.96418698766 	(obj:0)
STE(6,71)                            463.500202222335 	(obj:0)
STE(6,72)                            1779.71428809884 	(obj:0)
STE(6,73)                            2121.75010111115 	(obj:0)
STE(6,74)                            3437.96418698766 	(obj:0)
STE(6,75)                            2121.75010111118 	(obj:0)
STE(6,76)                            3437.96418698769 	(obj:0)
STE(6,77)                            3779.99999999996 	(obj:0)
STE(6,78)                            5096.21408587646 	(obj:0)
STE(6,79)                            244.090548301683 	(obj:0)
STE(6,80)                            1560.30463417819 	(obj:0)
STE(6,81)                             1902.3404471905 	(obj:0)
STE(6,82)                            3218.55453306701 	(obj:0)
STE(6,83)                            1902.34044719053 	(obj:0)
STE(6,84)                            3218.55453306703 	(obj:0)
STE(6,85)                            3560.59034607935 	(obj:0)
STE(6,86)                            4876.80443195585 	(obj:0)
STE(6,87)                            1902.34044719053 	(obj:0)
STE(6,88)                            3218.55453306703 	(obj:0)
STE(6,89)                            3560.59034607935 	(obj:0)
STE(6,90)                            4876.80443195585 	(obj:0)
STE(6,91)                            3560.59034607937 	(obj:0)
STE(6,92)                            4876.80443195588 	(obj:0)
STE(6,93)                            5218.84024496819 	(obj:0)
STE(6,94)                             6535.0543308447 	(obj:0)
STE(6,95)                            463.500202222337 	(obj:0)
STE(6,96)                            1779.71428809884 	(obj:0)
STE(6,97)                            2121.75010111115 	(obj:0)
STE(6,98)                            3437.96418698766 	(obj:0)
STE(6,99)                            2121.75010111118 	(obj:0)
STE(6,100)                           3437.96418698769 	(obj:0)
STE(6,101)                                       3780 	(obj:0)
STE(6,102)                           5096.21408587651 	(obj:0)
STE(6,103)                           2121.75010111118 	(obj:0)
STE(6,104)                           3437.96418698769 	(obj:0)
STE(6,105)                                       3780 	(obj:0)
STE(6,106)                           5096.21408587651 	(obj:0)
STE(6,107)                           3780.00000000003 	(obj:0)
STE(6,108)                           5096.21408587653 	(obj:0)
STE(6,109)                           5438.24989888884 	(obj:0)
STE(6,110)                           6754.46398476535 	(obj:0)
STE(6,111)                           1902.34044719053 	(obj:0)
STE(6,112)                           3218.55453306703 	(obj:0)
STE(6,113)                           3560.59034607934 	(obj:0)
STE(6,114)                           4876.80443195585 	(obj:0)
STE(6,115)                           3560.59034607937 	(obj:0)
STE(6,116)                           4876.80443195588 	(obj:0)
STE(6,117)                           5218.84024496822 	(obj:0)
STE(6,118)                           6535.05433084472 	(obj:0)
STE(6,119)                           3560.59034607937 	(obj:0)
STE(6,120)                           4876.80443195588 	(obj:0)
STE(6,121)                           5218.84024496819 	(obj:0)
STE(6,122)                            6535.0543308447 	(obj:0)
STE(6,123)                           5218.84024496822 	(obj:0)
STE(6,124)                           6535.05433084472 	(obj:0)
STE(6,125)                           6877.09014385706 	(obj:0)
STE(6,126)                           8193.30422973357 	(obj:0)
BG(5)                                723.522421037851 	(obj:10)
AVE(1)                               3259.55177567504 	(obj:0)
AVE(2)                               3259.55588804169 	(obj:0)
WB(3)                              0.0691531120687614 	(obj:0)
AVE(3)                               3579.36165209166 	(obj:0)
WB(4)                              0.0732654787188949 	(obj:0)
AVE(4)                               3579.36576445831 	(obj:0)
AVE(5)                               3472.77007794174 	(obj:0)
WB(6)                                 372.95195629129 	(obj:0)
AVE(6)                                3046.3618950668 	(obj:0)
WG(1)                                3259.55177567504 	(obj:10)
WG(2)                                3259.55588804169 	(obj:10)
WG(3)                                3579.29249897959 	(obj:10)
WG(4)                                3579.29249897959 	(obj:10)
WG(5)                                3472.77007794174 	(obj:10)
WG(6)                                2673.40993877551 	(obj:10)
BG(1)                                936.740723304551 	(obj:10)
BG(2)                                436.685776244079 	(obj:10)
BG(3)                                             617 	(obj:10)
BG(4)                                             617 	(obj:10)
y1(1,1)                              1492.42490899996 	(obj:0)
y1(2,3)                              1002.37509100002 	(obj:0)
y1(2,5)                              1002.37509100002 	(obj:0)
y1(3,7)                              1492.42490899996 	(obj:0)
y1(3,9)                              1492.42490899996 	(obj:0)
y1(3,11)                             1492.42490899996 	(obj:0)
y1(3,13)                             1492.42490899996 	(obj:0)
y1(4,15)                             1492.42490899996 	(obj:0)
y1(4,17)                             1492.42490899996 	(obj:0)
y1(4,19)                             1492.42490899996 	(obj:0)
y1(4,21)                             1492.42490899996 	(obj:0)
y1(4,23)                             1492.42490899996 	(obj:0)
y1(4,25)                             1492.42490899996 	(obj:0)
y1(4,27)                             1492.42490899996 	(obj:0)
y1(4,29)                             1492.42490899996 	(obj:0)
y1(5,31)                             1492.42490899996 	(obj:0)
y1(5,33)                             1492.42490899996 	(obj:0)
y1(5,35)                             1492.42490899996 	(obj:0)
y1(5,37)                             1492.42490899996 	(obj:0)
y1(5,39)                             1492.42490899996 	(obj:0)
y1(5,41)                             1492.42490899996 	(obj:0)
y1(5,43)                             1492.42490899996 	(obj:0)
y1(5,45)                             1492.42490899996 	(obj:0)
y1(5,47)                             1492.42490899996 	(obj:0)
y1(5,49)                             1492.42490899996 	(obj:0)
y1(5,51)                             1492.42490899996 	(obj:0)
y1(5,53)                             1492.42490899996 	(obj:0)
y1(5,55)                             1492.42490899996 	(obj:0)
y1(5,57)                             1492.42490899996 	(obj:0)
y1(5,59)                             1492.42490899996 	(obj:0)
y1(5,61)                             1492.42490899996 	(obj:0)
y2(2,4)                              342.200151428489 	(obj:0)
y2(2,6)                              342.200151428489 	(obj:0)
y2(6,64)                             1385.48851144895 	(obj:0)
y2(6,66)                             1385.48851144895 	(obj:0)
y2(6,68)                             1385.48851144895 	(obj:0)
y2(6,70)                             1385.48851144895 	(obj:0)
y2(6,72)                             1385.48851144895 	(obj:0)
y2(6,74)                             1385.48851144895 	(obj:0)
y2(6,76)                             1385.48851144895 	(obj:0)
y2(6,78)                             1385.48851144895 	(obj:0)
y2(6,80)                             1385.48851144895 	(obj:0)
y2(6,82)                             1385.48851144895 	(obj:0)
y2(6,84)                             1385.48851144895 	(obj:0)
y2(6,86)                             1385.48851144895 	(obj:0)
y2(6,88)                             1385.48851144895 	(obj:0)
y2(6,90)                             1385.48851144895 	(obj:0)
y2(6,92)                             1385.48851144895 	(obj:0)
y2(6,94)                             1385.48851144895 	(obj:0)
y2(6,96)                             1385.48851144895 	(obj:0)
y2(6,98)                             1385.48851144895 	(obj:0)
